Minimize
M1 + M2
Subject To
x0,8 + x0,9 + x0,10 + x0,11 + x0,12 + x0,13 + x0,14 = 1
x1,9 + x1,10 + x1,11 + x1,12 + x1,13 + x1,14 = 1
x2,9 + x2,10 + x2,11 + x2,12 + x2,13 + x2,14 + x2,15 = 1
x3,8 + x3,9 + x3,10 + x3,11 + x3,12 + x3,13 = 1
x4,7 + x4,8 + x4,9 + x4,10 + x4,11 + x4,12 = 1
x5,6 + x5,7 + x5,8 + x5,9 + x5,10 + x5,11 = 1
x6,4 + x6,5 + x6,6 + x6,7 + x6,8 + x6,9 = 1
x7,6 + x7,7 + x7,8 + x7,9 + x7,10 + x7,11 + x7,12 + x7,13 + x7,14 = 1
x8,7 + x8,8 + x8,9 + x8,10 + x8,11 + x8,12 + x8,13 + x8,14 = 1
x9,7 + x9,8 + x9,9 + x9,10 + x9,11 + x9,12 + x9,13 + x9,14 + x9,15 = 1
x10,6 + x10,7 + x10,8 + x10,9 + x10,10 + x10,11 + x10,12 + x10,13 = 1
x11,5 + x11,6 + x11,7 + x11,8 + x11,9 + x11,10 + x11,11 + x11,12 = 1
x12,4 + x12,5 + x12,6 + x12,7 + x12,8 + x12,9 + x12,10 + x12,11 = 1
x13,2 + x13,3 + x13,4 + x13,5 + x13,6 + x13,7 = 1
x14,3 + x14,4 + x14,5 + x14,6 + x14,7 + x14,8 + x14,9 + x14,10 + x14,11 + x14,12 + x14,13 + x14,14 = 1
x15,2 + x15,3 + x15,4 + x15,5 + x15,6 + x15,7 + x15,8 + x15,9 + x15,10 + x15,11 + x15,12 + x15,13 = 1
x16,1 + x16,2 + x16,3 + x16,4 + x16,5 + x16,6 = 1
x17,6 + x17,7 + x17,8 + x17,9 + x17,10 + x17,11 + x17,12 + x17,13 + x17,14 = 1
x18,7 + x18,8 + x18,9 + x18,10 + x18,11 + x18,12 + x18,13 + x18,14 = 1
x19,7 + x19,8 + x19,9 + x19,10 + x19,11 + x19,12 + x19,13 + x19,14 + x19,15 = 1
x20,6 + x20,7 + x20,8 + x20,9 + x20,10 + x20,11 + x20,12 + x20,13 = 1
x21,5 + x21,6 + x21,7 + x21,8 + x21,9 + x21,10 + x21,11 + x21,12 = 1
x22,4 + x22,5 + x22,6 + x22,7 + x22,8 + x22,9 + x22,10 + x22,11 = 1
x23,2 + x23,3 + x23,4 + x23,5 + x23,6 + x23,7 = 1
x24,3 + x24,4 + x24,5 + x24,6 + x24,7 + x24,8 + x24,9 + x24,10 + x24,11 + x24,12 + x24,13 + x24,14 = 1
x25,2 + x25,3 + x25,4 + x25,5 + x25,6 + x25,7 + x25,8 + x25,9 + x25,10 + x25,11 + x25,12 + x25,13 = 1
x26,1 + x26,2 + x26,3 + x26,4 + x26,5 + x26,6 = 1
x27,6 + x27,7 + x27,8 + x27,9 + x27,10 + x27,11 + x27,12 + x27,13 + x27,14 = 1
x28,7 + x28,8 + x28,9 + x28,10 + x28,11 + x28,12 + x28,13 + x28,14 = 1
x29,7 + x29,8 + x29,9 + x29,10 + x29,11 + x29,12 + x29,13 + x29,14 + x29,15 = 1
x30,6 + x30,7 + x30,8 + x30,9 + x30,10 + x30,11 + x30,12 + x30,13 = 1
x31,5 + x31,6 + x31,7 + x31,8 + x31,9 + x31,10 + x31,11 + x31,12 = 1
x32,4 + x32,5 + x32,6 + x32,7 + x32,8 + x32,9 + x32,10 + x32,11 = 1
x33,2 + x33,3 + x33,4 + x33,5 + x33,6 + x33,7 = 1
x34,3 + x34,4 + x34,5 + x34,6 + x34,7 + x34,8 + x34,9 + x34,10 + x34,11 + x34,12 + x34,13 + x34,14 = 1
x35,2 + x35,3 + x35,4 + x35,5 + x35,6 + x35,7 + x35,8 + x35,9 + x35,10 + x35,11 + x35,12 + x35,13 = 1
x36,1 + x36,2 + x36,3 + x36,4 + x36,5 + x36,6 = 1
x37,4 + x37,5 + x37,6 + x37,7 + x37,8 + x37,9 + x37,10 + x37,11 + x37,12 + x37,13 + x37,14 = 1
x38,5 + x38,6 + x38,7 + x38,8 + x38,9 + x38,10 + x38,11 + x38,12 + x38,13 + x38,14 = 1
x39,5 + x39,6 + x39,7 + x39,8 + x39,9 + x39,10 + x39,11 + x39,12 + x39,13 + x39,14 + x39,15 = 1
x40,4 + x40,5 + x40,6 + x40,7 + x40,8 + x40,9 + x40,10 + x40,11 + x40,12 + x40,13 = 1
x41,3 + x41,4 + x41,5 + x41,6 + x41,7 + x41,8 + x41,9 + x41,10 + x41,11 + x41,12 = 1
x42,2 + x42,3 + x42,4 + x42,5 + x42,6 + x42,7 + x42,8 + x42,9 + x42,10 + x42,11 = 1
x43,3 + x43,4 + x43,5 + x43,6 + x43,7 + x43,8 + x43,9 + x43,10 + x43,11 + x43,12 + x43,13 + x43,14 = 1
x44,2 + x44,3 + x44,4 + x44,5 + x44,6 + x44,7 + x44,8 + x44,9 + x44,10 + x44,11 + x44,12 + x44,13 = 1
x45,1 + x45,2 + x45,3 + x45,4 + x45,5 + x45,6 + x45,7 + x45,8 + x45,9 + x45,10 = 1
x46,4 + x46,5 + x46,6 + x46,7 + x46,8 + x46,9 + x46,10 + x46,11 + x46,12 + x46,13 + x46,14 + x46,15 = 1
x47,3 + x47,4 + x47,5 + x47,6 + x47,7 + x47,8 + x47,9 + x47,10 + x47,11 + x47,12 + x47,13 + x47,14 = 1
x48,2 + x48,3 + x48,4 + x48,5 + x48,6 + x48,7 + x48,8 + x48,9 + x48,10 + x48,11 + x48,12 + x48,13 = 1
x49,4 + x49,5 + x49,6 + x49,7 + x49,8 + x49,9 + x49,10 + x49,11 + x49,12 + x49,13 + x49,14 + x49,15 = 1
x50,3 + x50,4 + x50,5 + x50,6 + x50,7 + x50,8 + x50,9 + x50,10 + x50,11 + x50,12 + x50,13 + x50,14 = 1
x51,2 + x51,3 + x51,4 + x51,5 + x51,6 + x51,7 + x51,8 + x51,9 + x51,10 + x51,11 + x51,12 + x51,13 = 1
x52,1 + x52,2 + x52,3 + x52,4 + x52,5 + x52,6 + x52,7 + x52,8 + x52,9 + x52,10 + x52,11 + x52,12 = 1
x16,1 + x26,1 + x36,1 + x45,1 + x52,1 - M2 <= 0
x15,2 + x16,2 + x25,2 + x26,2 + x35,2 + x36,2 + x42,2 + x44,2 + x45,2 + x48,2 + x51,2 + x52,2 - M2 <= 0
x13,2 + x13,1 + x23,2 + x23,1 + x33,2 + x33,1 - M1 <= 0
x15,3 + x16,3 + x25,3 + x26,3 + x35,3 + x36,3 + x41,3 + x42,3 + x44,3 + x45,3 + x47,3 + x48,3 + x50,3 + x51,3 + x52,3 - M2 <= 0
x13,3 + x13,2 + x14,3 + x14,2 + x23,3 + x23,2 + x24,3 + x24,2 + x33,3 + x33,2 + x34,3 + x34,2 + x43,3 + x43,2 - M1 <= 0
x12,4 + x15,4 + x16,4 + x22,4 + x25,4 + x26,4 + x32,4 + x35,4 + x36,4 + x40,4 + x41,4 + x42,4 + x44,4 + x45,4 + x46,4 + x47,4 + x48,4 + x49,4 + x50,4 + x51,4 + x52,4 - M2 <= 0
x6,4 + x6,3 + x13,4 + x13,3 + x14,4 + x14,3 + x23,4 + x23,3 + x24,4 + x24,3 + x33,4 + x33,3 + x34,4 + x34,3 + x37,4 + x37,3 + x43,4 + x43,3 - M1 <= 0
x11,5 + x12,5 + x15,5 + x16,5 + x21,5 + x22,5 + x25,5 + x26,5 + x31,5 + x32,5 + x35,5 + x36,5 + x39,5 + x40,5 + x41,5 + x42,5 + x44,5 + x45,5 + x46,5 + x47,5 + x48,5 + x49,5 + x50,5 + x51,5 + x52,5 - M2 <= 0
x6,5 + x6,4 + x13,5 + x13,4 + x14,5 + x14,4 + x23,5 + x23,4 + x24,5 + x24,4 + x33,5 + x33,4 + x34,5 + x34,4 + x37,5 + x37,4 + x38,5 + x38,4 + x43,5 + x43,4 - M1 <= 0
x5,6 + x10,6 + x11,6 + x12,6 + x15,6 + x16,6 + x20,6 + x21,6 + x22,6 + x25,6 + x26,6 + x30,6 + x31,6 + x32,6 + x35,6 + x36,6 + x39,6 + x40,6 + x41,6 + x42,6 + x44,6 + x45,6 + x46,6 + x47,6 + x48,6 + x49,6 + x50,6 + x51,6 + x52,6 - M2 <= 0
x6,6 + x6,5 + x7,6 + x7,5 + x13,6 + x13,5 + x14,6 + x14,5 + x17,6 + x17,5 + x23,6 + x23,5 + x24,6 + x24,5 + x27,6 + x27,5 + x33,6 + x33,5 + x34,6 + x34,5 + x37,6 + x37,5 + x38,6 + x38,5 + x43,6 + x43,5 - M1 <= 0
x4,7 + x5,7 + x9,7 + x10,7 + x11,7 + x12,7 + x15,7 + x19,7 + x20,7 + x21,7 + x22,7 + x25,7 + x29,7 + x30,7 + x31,7 + x32,7 + x35,7 + x39,7 + x40,7 + x41,7 + x42,7 + x44,7 + x45,7 + x46,7 + x47,7 + x48,7 + x49,7 + x50,7 + x51,7 + x52,7 - M2 <= 0
x6,7 + x6,6 + x7,7 + x7,6 + x8,7 + x8,6 + x13,7 + x13,6 + x14,7 + x14,6 + x17,7 + x17,6 + x18,7 + x18,6 + x23,7 + x23,6 + x24,7 + x24,6 + x27,7 + x27,6 + x28,7 + x28,6 + x33,7 + x33,6 + x34,7 + x34,6 + x37,7 + x37,6 + x38,7 + x38,6 + x43,7 + x43,6 - M1 <= 0
x3,8 + x4,8 + x5,8 + x9,8 + x10,8 + x11,8 + x12,8 + x15,8 + x19,8 + x20,8 + x21,8 + x22,8 + x25,8 + x29,8 + x30,8 + x31,8 + x32,8 + x35,8 + x39,8 + x40,8 + x41,8 + x42,8 + x44,8 + x45,8 + x46,8 + x47,8 + x48,8 + x49,8 + x50,8 + x51,8 + x52,8 - M2 <= 0
x0,8 + x0,7 + x6,8 + x6,7 + x7,8 + x7,7 + x8,8 + x8,7 + x13,8 + x13,7 + x14,8 + x14,7 + x17,8 + x17,7 + x18,8 + x18,7 + x23,8 + x23,7 + x24,8 + x24,7 + x27,8 + x27,7 + x28,8 + x28,7 + x33,8 + x33,7 + x34,8 + x34,7 + x37,8 + x37,7 + x38,8 + x38,7 + x43,8 + x43,7 - M1 <= 0
x2,9 + x3,9 + x4,9 + x5,9 + x9,9 + x10,9 + x11,9 + x12,9 + x15,9 + x19,9 + x20,9 + x21,9 + x22,9 + x25,9 + x29,9 + x30,9 + x31,9 + x32,9 + x35,9 + x39,9 + x40,9 + x41,9 + x42,9 + x44,9 + x45,9 + x46,9 + x47,9 + x48,9 + x49,9 + x50,9 + x51,9 + x52,9 - M2 <= 0
x0,9 + x0,8 + x1,9 + x1,8 + x6,9 + x6,8 + x7,9 + x7,8 + x8,9 + x8,8 + x14,9 + x14,8 + x17,9 + x17,8 + x18,9 + x18,8 + x24,9 + x24,8 + x27,9 + x27,8 + x28,9 + x28,8 + x34,9 + x34,8 + x37,9 + x37,8 + x38,9 + x38,8 + x43,9 + x43,8 - M1 <= 0
x2,10 + x3,10 + x4,10 + x5,10 + x9,10 + x10,10 + x11,10 + x12,10 + x15,10 + x19,10 + x20,10 + x21,10 + x22,10 + x25,10 + x29,10 + x30,10 + x31,10 + x32,10 + x35,10 + x39,10 + x40,10 + x41,10 + x42,10 + x44,10 + x45,10 + x46,10 + x47,10 + x48,10 + x49,10 + x50,10 + x51,10 + x52,10 - M2 <= 0
x0,10 + x0,9 + x1,10 + x1,9 + x6,10 + x6,9 + x7,10 + x7,9 + x8,10 + x8,9 + x14,10 + x14,9 + x17,10 + x17,9 + x18,10 + x18,9 + x24,10 + x24,9 + x27,10 + x27,9 + x28,10 + x28,9 + x34,10 + x34,9 + x37,10 + x37,9 + x38,10 + x38,9 + x43,10 + x43,9 - M1 <= 0
x2,11 + x3,11 + x4,11 + x5,11 + x9,11 + x10,11 + x11,11 + x12,11 + x15,11 + x19,11 + x20,11 + x21,11 + x22,11 + x25,11 + x29,11 + x30,11 + x31,11 + x32,11 + x35,11 + x39,11 + x40,11 + x41,11 + x42,11 + x44,11 + x46,11 + x47,11 + x48,11 + x49,11 + x50,11 + x51,11 + x52,11 - M2 <= 0
x0,11 + x0,10 + x1,11 + x1,10 + x7,11 + x7,10 + x8,11 + x8,10 + x14,11 + x14,10 + x17,11 + x17,10 + x18,11 + x18,10 + x24,11 + x24,10 + x27,11 + x27,10 + x28,11 + x28,10 + x34,11 + x34,10 + x37,11 + x37,10 + x38,11 + x38,10 + x43,11 + x43,10 - M1 <= 0
x2,12 + x3,12 + x4,12 + x9,12 + x10,12 + x11,12 + x15,12 + x19,12 + x20,12 + x21,12 + x25,12 + x29,12 + x30,12 + x31,12 + x35,12 + x39,12 + x40,12 + x41,12 + x44,12 + x46,12 + x47,12 + x48,12 + x49,12 + x50,12 + x51,12 + x52,12 - M2 <= 0
x0,12 + x0,11 + x1,12 + x1,11 + x7,12 + x7,11 + x8,12 + x8,11 + x14,12 + x14,11 + x17,12 + x17,11 + x18,12 + x18,11 + x24,12 + x24,11 + x27,12 + x27,11 + x28,12 + x28,11 + x34,12 + x34,11 + x37,12 + x37,11 + x38,12 + x38,11 + x43,12 + x43,11 - M1 <= 0
x2,13 + x3,13 + x9,13 + x10,13 + x15,13 + x19,13 + x20,13 + x25,13 + x29,13 + x30,13 + x35,13 + x39,13 + x40,13 + x44,13 + x46,13 + x47,13 + x48,13 + x49,13 + x50,13 + x51,13 - M2 <= 0
x0,13 + x0,12 + x1,13 + x1,12 + x7,13 + x7,12 + x8,13 + x8,12 + x14,13 + x14,12 + x17,13 + x17,12 + x18,13 + x18,12 + x24,13 + x24,12 + x27,13 + x27,12 + x28,13 + x28,12 + x34,13 + x34,12 + x37,13 + x37,12 + x38,13 + x38,12 + x43,13 + x43,12 - M1 <= 0
x2,14 + x9,14 + x19,14 + x29,14 + x39,14 + x46,14 + x47,14 + x49,14 + x50,14 - M2 <= 0
x0,14 + x0,13 + x1,14 + x1,13 + x7,14 + x7,13 + x8,14 + x8,13 + x14,14 + x14,13 + x17,14 + x17,13 + x18,14 + x18,13 + x24,14 + x24,13 + x27,14 + x27,13 + x28,14 + x28,13 + x34,14 + x34,13 + x37,14 + x37,13 + x38,14 + x38,13 + x43,14 + x43,13 - M1 <= 0
x2,15 + x9,15 + x19,15 + x29,15 + x39,15 + x46,15 + x49,15 - M2 <= 0
x0,15 + x0,14 + x1,15 + x1,14 + x7,15 + x7,14 + x8,15 + x8,14 + x14,15 + x14,14 + x17,15 + x17,14 + x18,15 + x18,14 + x24,15 + x24,14 + x27,15 + x27,14 + x28,15 + x28,14 + x34,15 + x34,14 + x37,15 + x37,14 + x38,15 + x38,14 + x43,15 + x43,14 - M1 <= 0
8 x3,8 + 9 x3,9 + 10 x3,10 + 11 x3,11 + 12 x3,12 + 13 x3,13 - 9 x1,9 - 10 x1,10 - 11 x1,11 - 12 x1,12 - 13 x1,13 - 14 x1,14 <= -1
8 x3,8 + 9 x3,9 + 10 x3,10 + 11 x3,11 + 12 x3,12 + 13 x3,13 - 9 x2,9 - 10 x2,10 - 11 x2,11 - 12 x2,12 - 13 x2,13 - 14 x2,14 - 15 x2,15 <= -1
7 x4,7 + 8 x4,8 + 9 x4,9 + 10 x4,10 + 11 x4,11 + 12 x4,12 - 8 x0,8 - 9 x0,9 - 10 x0,10 - 11 x0,11 - 12 x0,12 - 13 x0,13 - 14 x0,14 <= -1
7 x4,7 + 8 x4,8 + 9 x4,9 + 10 x4,10 + 11 x4,11 + 12 x4,12 - 8 x3,8 - 9 x3,9 - 10 x3,10 - 11 x3,11 - 12 x3,12 - 13 x3,13 <= -1
6 x5,6 + 7 x5,7 + 8 x5,8 + 9 x5,9 + 10 x5,10 + 11 x5,11 - 7 x4,7 - 8 x4,8 - 9 x4,9 - 10 x4,10 - 11 x4,11 - 12 x4,12 <= -1
4 x6,4 + 5 x6,5 + 6 x6,6 + 7 x6,7 + 8 x6,8 + 9 x6,9 - 6 x5,6 - 7 x5,7 - 8 x5,8 - 9 x5,9 - 10 x5,10 - 11 x5,11 <= -2
6 x10,6 + 7 x10,7 + 8 x10,8 + 9 x10,9 + 10 x10,10 + 11 x10,11 + 12 x10,12 + 13 x10,13 - 7 x8,7 - 8 x8,8 - 9 x8,9 - 10 x8,10 - 11 x8,11 - 12 x8,12 - 13 x8,13 - 14 x8,14 <= -1
6 x10,6 + 7 x10,7 + 8 x10,8 + 9 x10,9 + 10 x10,10 + 11 x10,11 + 12 x10,12 + 13 x10,13 - 7 x9,7 - 8 x9,8 - 9 x9,9 - 10 x9,10 - 11 x9,11 - 12 x9,12 - 13 x9,13 - 14 x9,14 - 15 x9,15 <= -1
5 x11,5 + 6 x11,6 + 7 x11,7 + 8 x11,8 + 9 x11,9 + 10 x11,10 + 11 x11,11 + 12 x11,12 - 6 x7,6 - 7 x7,7 - 8 x7,8 - 9 x7,9 - 10 x7,10 - 11 x7,11 - 12 x7,12 - 13 x7,13 - 14 x7,14 <= -1
5 x11,5 + 6 x11,6 + 7 x11,7 + 8 x11,8 + 9 x11,9 + 10 x11,10 + 11 x11,11 + 12 x11,12 - 6 x10,6 - 7 x10,7 - 8 x10,8 - 9 x10,9 - 10 x10,10 - 11 x10,11 - 12 x10,12 - 13 x10,13 <= -1
4 x12,4 + 5 x12,5 + 6 x12,6 + 7 x12,7 + 8 x12,8 + 9 x12,9 + 10 x12,10 + 11 x12,11 - 5 x11,5 - 6 x11,6 - 7 x11,7 - 8 x11,8 - 9 x11,9 - 10 x11,10 - 11 x11,11 - 12 x11,12 <= -1
2 x13,2 + 3 x13,3 + 4 x13,4 + 5 x13,5 + 6 x13,6 + 7 x13,7 - 4 x6,4 - 5 x6,5 - 6 x6,6 - 7 x6,7 - 8 x6,8 - 9 x6,9 <= -2
2 x13,2 + 3 x13,3 + 4 x13,4 + 5 x13,5 + 6 x13,6 + 7 x13,7 - 4 x12,4 - 5 x12,5 - 6 x12,6 - 7 x12,7 - 8 x12,8 - 9 x12,9 - 10 x12,10 - 11 x12,11 <= -2
2 x15,2 + 3 x15,3 + 4 x15,4 + 5 x15,5 + 6 x15,6 + 7 x15,7 + 8 x15,8 + 9 x15,9 + 10 x15,10 + 11 x15,11 + 12 x15,12 + 13 x15,13 - 3 x14,3 - 4 x14,4 - 5 x14,5 - 6 x14,6 - 7 x14,7 - 8 x14,8 - 9 x14,9 - 10 x14,10 - 11 x14,11 - 12 x14,12 - 13 x14,13 - 14 x14,14 <= -1
1 x16,1 + 2 x16,2 + 3 x16,3 + 4 x16,4 + 5 x16,5 + 6 x16,6 - 2 x13,2 - 3 x13,3 - 4 x13,4 - 5 x13,5 - 6 x13,6 - 7 x13,7 <= -1
1 x16,1 + 2 x16,2 + 3 x16,3 + 4 x16,4 + 5 x16,5 + 6 x16,6 - 2 x15,2 - 3 x15,3 - 4 x15,4 - 5 x15,5 - 6 x15,6 - 7 x15,7 - 8 x15,8 - 9 x15,9 - 10 x15,10 - 11 x15,11 - 12 x15,12 - 13 x15,13 <= -1
6 x20,6 + 7 x20,7 + 8 x20,8 + 9 x20,9 + 10 x20,10 + 11 x20,11 + 12 x20,12 + 13 x20,13 - 7 x18,7 - 8 x18,8 - 9 x18,9 - 10 x18,10 - 11 x18,11 - 12 x18,12 - 13 x18,13 - 14 x18,14 <= -1
6 x20,6 + 7 x20,7 + 8 x20,8 + 9 x20,9 + 10 x20,10 + 11 x20,11 + 12 x20,12 + 13 x20,13 - 7 x19,7 - 8 x19,8 - 9 x19,9 - 10 x19,10 - 11 x19,11 - 12 x19,12 - 13 x19,13 - 14 x19,14 - 15 x19,15 <= -1
5 x21,5 + 6 x21,6 + 7 x21,7 + 8 x21,8 + 9 x21,9 + 10 x21,10 + 11 x21,11 + 12 x21,12 - 6 x17,6 - 7 x17,7 - 8 x17,8 - 9 x17,9 - 10 x17,10 - 11 x17,11 - 12 x17,12 - 13 x17,13 - 14 x17,14 <= -1
5 x21,5 + 6 x21,6 + 7 x21,7 + 8 x21,8 + 9 x21,9 + 10 x21,10 + 11 x21,11 + 12 x21,12 - 6 x20,6 - 7 x20,7 - 8 x20,8 - 9 x20,9 - 10 x20,10 - 11 x20,11 - 12 x20,12 - 13 x20,13 <= -1
4 x22,4 + 5 x22,5 + 6 x22,6 + 7 x22,7 + 8 x22,8 + 9 x22,9 + 10 x22,10 + 11 x22,11 - 5 x21,5 - 6 x21,6 - 7 x21,7 - 8 x21,8 - 9 x21,9 - 10 x21,10 - 11 x21,11 - 12 x21,12 <= -1
2 x23,2 + 3 x23,3 + 4 x23,4 + 5 x23,5 + 6 x23,6 + 7 x23,7 - 4 x6,4 - 5 x6,5 - 6 x6,6 - 7 x6,7 - 8 x6,8 - 9 x6,9 <= -2
2 x23,2 + 3 x23,3 + 4 x23,4 + 5 x23,5 + 6 x23,6 + 7 x23,7 - 4 x22,4 - 5 x22,5 - 6 x22,6 - 7 x22,7 - 8 x22,8 - 9 x22,9 - 10 x22,10 - 11 x22,11 <= -2
2 x25,2 + 3 x25,3 + 4 x25,4 + 5 x25,5 + 6 x25,6 + 7 x25,7 + 8 x25,8 + 9 x25,9 + 10 x25,10 + 11 x25,11 + 12 x25,12 + 13 x25,13 - 3 x24,3 - 4 x24,4 - 5 x24,5 - 6 x24,6 - 7 x24,7 - 8 x24,8 - 9 x24,9 - 10 x24,10 - 11 x24,11 - 12 x24,12 - 13 x24,13 - 14 x24,14 <= -1
1 x26,1 + 2 x26,2 + 3 x26,3 + 4 x26,4 + 5 x26,5 + 6 x26,6 - 2 x23,2 - 3 x23,3 - 4 x23,4 - 5 x23,5 - 6 x23,6 - 7 x23,7 <= -1
1 x26,1 + 2 x26,2 + 3 x26,3 + 4 x26,4 + 5 x26,5 + 6 x26,6 - 2 x25,2 - 3 x25,3 - 4 x25,4 - 5 x25,5 - 6 x25,6 - 7 x25,7 - 8 x25,8 - 9 x25,9 - 10 x25,10 - 11 x25,11 - 12 x25,12 - 13 x25,13 <= -1
6 x30,6 + 7 x30,7 + 8 x30,8 + 9 x30,9 + 10 x30,10 + 11 x30,11 + 12 x30,12 + 13 x30,13 - 7 x28,7 - 8 x28,8 - 9 x28,9 - 10 x28,10 - 11 x28,11 - 12 x28,12 - 13 x28,13 - 14 x28,14 <= -1
6 x30,6 + 7 x30,7 + 8 x30,8 + 9 x30,9 + 10 x30,10 + 11 x30,11 + 12 x30,12 + 13 x30,13 - 7 x29,7 - 8 x29,8 - 9 x29,9 - 10 x29,10 - 11 x29,11 - 12 x29,12 - 13 x29,13 - 14 x29,14 - 15 x29,15 <= -1
5 x31,5 + 6 x31,6 + 7 x31,7 + 8 x31,8 + 9 x31,9 + 10 x31,10 + 11 x31,11 + 12 x31,12 - 6 x27,6 - 7 x27,7 - 8 x27,8 - 9 x27,9 - 10 x27,10 - 11 x27,11 - 12 x27,12 - 13 x27,13 - 14 x27,14 <= -1
5 x31,5 + 6 x31,6 + 7 x31,7 + 8 x31,8 + 9 x31,9 + 10 x31,10 + 11 x31,11 + 12 x31,12 - 6 x30,6 - 7 x30,7 - 8 x30,8 - 9 x30,9 - 10 x30,10 - 11 x30,11 - 12 x30,12 - 13 x30,13 <= -1
4 x32,4 + 5 x32,5 + 6 x32,6 + 7 x32,7 + 8 x32,8 + 9 x32,9 + 10 x32,10 + 11 x32,11 - 5 x31,5 - 6 x31,6 - 7 x31,7 - 8 x31,8 - 9 x31,9 - 10 x31,10 - 11 x31,11 - 12 x31,12 <= -1
2 x33,2 + 3 x33,3 + 4 x33,4 + 5 x33,5 + 6 x33,6 + 7 x33,7 - 4 x6,4 - 5 x6,5 - 6 x6,6 - 7 x6,7 - 8 x6,8 - 9 x6,9 <= -2
2 x33,2 + 3 x33,3 + 4 x33,4 + 5 x33,5 + 6 x33,6 + 7 x33,7 - 4 x32,4 - 5 x32,5 - 6 x32,6 - 7 x32,7 - 8 x32,8 - 9 x32,9 - 10 x32,10 - 11 x32,11 <= -2
2 x35,2 + 3 x35,3 + 4 x35,4 + 5 x35,5 + 6 x35,6 + 7 x35,7 + 8 x35,8 + 9 x35,9 + 10 x35,10 + 11 x35,11 + 12 x35,12 + 13 x35,13 - 3 x34,3 - 4 x34,4 - 5 x34,5 - 6 x34,6 - 7 x34,7 - 8 x34,8 - 9 x34,9 - 10 x34,10 - 11 x34,11 - 12 x34,12 - 13 x34,13 - 14 x34,14 <= -1
1 x36,1 + 2 x36,2 + 3 x36,3 + 4 x36,4 + 5 x36,5 + 6 x36,6 - 2 x33,2 - 3 x33,3 - 4 x33,4 - 5 x33,5 - 6 x33,6 - 7 x33,7 <= -1
1 x36,1 + 2 x36,2 + 3 x36,3 + 4 x36,4 + 5 x36,5 + 6 x36,6 - 2 x35,2 - 3 x35,3 - 4 x35,4 - 5 x35,5 - 6 x35,6 - 7 x35,7 - 8 x35,8 - 9 x35,9 - 10 x35,10 - 11 x35,11 - 12 x35,12 - 13 x35,13 <= -1
4 x40,4 + 5 x40,5 + 6 x40,6 + 7 x40,7 + 8 x40,8 + 9 x40,9 + 10 x40,10 + 11 x40,11 + 12 x40,12 + 13 x40,13 - 5 x38,5 - 6 x38,6 - 7 x38,7 - 8 x38,8 - 9 x38,9 - 10 x38,10 - 11 x38,11 - 12 x38,12 - 13 x38,13 - 14 x38,14 <= -1
4 x40,4 + 5 x40,5 + 6 x40,6 + 7 x40,7 + 8 x40,8 + 9 x40,9 + 10 x40,10 + 11 x40,11 + 12 x40,12 + 13 x40,13 - 5 x39,5 - 6 x39,6 - 7 x39,7 - 8 x39,8 - 9 x39,9 - 10 x39,10 - 11 x39,11 - 12 x39,12 - 13 x39,13 - 14 x39,14 - 15 x39,15 <= -1
3 x41,3 + 4 x41,4 + 5 x41,5 + 6 x41,6 + 7 x41,7 + 8 x41,8 + 9 x41,9 + 10 x41,10 + 11 x41,11 + 12 x41,12 - 4 x37,4 - 5 x37,5 - 6 x37,6 - 7 x37,7 - 8 x37,8 - 9 x37,9 - 10 x37,10 - 11 x37,11 - 12 x37,12 - 13 x37,13 - 14 x37,14 <= -1
3 x41,3 + 4 x41,4 + 5 x41,5 + 6 x41,6 + 7 x41,7 + 8 x41,8 + 9 x41,9 + 10 x41,10 + 11 x41,11 + 12 x41,12 - 4 x40,4 - 5 x40,5 - 6 x40,6 - 7 x40,7 - 8 x40,8 - 9 x40,9 - 10 x40,10 - 11 x40,11 - 12 x40,12 - 13 x40,13 <= -1
2 x42,2 + 3 x42,3 + 4 x42,4 + 5 x42,5 + 6 x42,6 + 7 x42,7 + 8 x42,8 + 9 x42,9 + 10 x42,10 + 11 x42,11 - 3 x41,3 - 4 x41,4 - 5 x41,5 - 6 x41,6 - 7 x41,7 - 8 x41,8 - 9 x41,9 - 10 x41,10 - 11 x41,11 - 12 x41,12 <= -1
2 x44,2 + 3 x44,3 + 4 x44,4 + 5 x44,5 + 6 x44,6 + 7 x44,7 + 8 x44,8 + 9 x44,9 + 10 x44,10 + 11 x44,11 + 12 x44,12 + 13 x44,13 - 3 x43,3 - 4 x43,4 - 5 x43,5 - 6 x43,6 - 7 x43,7 - 8 x43,8 - 9 x43,9 - 10 x43,10 - 11 x43,11 - 12 x43,12 - 13 x43,13 - 14 x43,14 <= -1
1 x45,1 + 2 x45,2 + 3 x45,3 + 4 x45,4 + 5 x45,5 + 6 x45,6 + 7 x45,7 + 8 x45,8 + 9 x45,9 + 10 x45,10 - 2 x42,2 - 3 x42,3 - 4 x42,4 - 5 x42,5 - 6 x42,6 - 7 x42,7 - 8 x42,8 - 9 x42,9 - 10 x42,10 - 11 x42,11 <= -1
1 x45,1 + 2 x45,2 + 3 x45,3 + 4 x45,4 + 5 x45,5 + 6 x45,6 + 7 x45,7 + 8 x45,8 + 9 x45,9 + 10 x45,10 - 2 x44,2 - 3 x44,3 - 4 x44,4 - 5 x44,5 - 6 x44,6 - 7 x44,7 - 8 x44,8 - 9 x44,9 - 10 x44,10 - 11 x44,11 - 12 x44,12 - 13 x44,13 <= -1
3 x47,3 + 4 x47,4 + 5 x47,5 + 6 x47,6 + 7 x47,7 + 8 x47,8 + 9 x47,9 + 10 x47,10 + 11 x47,11 + 12 x47,12 + 13 x47,13 + 14 x47,14 - 4 x46,4 - 5 x46,5 - 6 x46,6 - 7 x46,7 - 8 x46,8 - 9 x46,9 - 10 x46,10 - 11 x46,11 - 12 x46,12 - 13 x46,13 - 14 x46,14 - 15 x46,15 <= -1
2 x48,2 + 3 x48,3 + 4 x48,4 + 5 x48,5 + 6 x48,6 + 7 x48,7 + 8 x48,8 + 9 x48,9 + 10 x48,10 + 11 x48,11 + 12 x48,12 + 13 x48,13 - 3 x47,3 - 4 x47,4 - 5 x47,5 - 6 x47,6 - 7 x47,7 - 8 x47,8 - 9 x47,9 - 10 x47,10 - 11 x47,11 - 12 x47,12 - 13 x47,13 - 14 x47,14 <= -1
3 x50,3 + 4 x50,4 + 5 x50,5 + 6 x50,6 + 7 x50,7 + 8 x50,8 + 9 x50,9 + 10 x50,10 + 11 x50,11 + 12 x50,12 + 13 x50,13 + 14 x50,14 - 4 x49,4 - 5 x49,5 - 6 x49,6 - 7 x49,7 - 8 x49,8 - 9 x49,9 - 10 x49,10 - 11 x49,11 - 12 x49,12 - 13 x49,13 - 14 x49,14 - 15 x49,15 <= -1
2 x51,2 + 3 x51,3 + 4 x51,4 + 5 x51,5 + 6 x51,6 + 7 x51,7 + 8 x51,8 + 9 x51,9 + 10 x51,10 + 11 x51,11 + 12 x51,12 + 13 x51,13 - 3 x50,3 - 4 x50,4 - 5 x50,5 - 6 x50,6 - 7 x50,7 - 8 x50,8 - 9 x50,9 - 10 x50,10 - 11 x50,11 - 12 x50,12 - 13 x50,13 - 14 x50,14 <= -1
1 x52,1 + 2 x52,2 + 3 x52,3 + 4 x52,4 + 5 x52,5 + 6 x52,6 + 7 x52,7 + 8 x52,8 + 9 x52,9 + 10 x52,10 + 11 x52,11 + 12 x52,12 - 2 x48,2 - 3 x48,3 - 4 x48,4 - 5 x48,5 - 6 x48,6 - 7 x48,7 - 8 x48,8 - 9 x48,9 - 10 x48,10 - 11 x48,11 - 12 x48,12 - 13 x48,13 <= -1
1 x52,1 + 2 x52,2 + 3 x52,3 + 4 x52,4 + 5 x52,5 + 6 x52,6 + 7 x52,7 + 8 x52,8 + 9 x52,9 + 10 x52,10 + 11 x52,11 + 12 x52,12 - 2 x51,2 - 3 x51,3 - 4 x51,4 - 5 x51,5 - 6 x51,6 - 7 x51,7 - 8 x51,8 - 9 x51,9 - 10 x51,10 - 11 x51,11 - 12 x51,12 - 13 x51,13 <= -1
Bounds
0 <= x0,8 <= 1
0 <= x0,9 <= 1
0 <= x0,10 <= 1
0 <= x0,11 <= 1
0 <= x0,12 <= 1
0 <= x0,13 <= 1
0 <= x0,14 <= 1
0 <= x1,9 <= 1
0 <= x1,10 <= 1
0 <= x1,11 <= 1
0 <= x1,12 <= 1
0 <= x1,13 <= 1
0 <= x1,14 <= 1
0 <= x2,9 <= 1
0 <= x2,10 <= 1
0 <= x2,11 <= 1
0 <= x2,12 <= 1
0 <= x2,13 <= 1
0 <= x2,14 <= 1
0 <= x2,15 <= 1
0 <= x3,8 <= 1
0 <= x3,9 <= 1
0 <= x3,10 <= 1
0 <= x3,11 <= 1
0 <= x3,12 <= 1
0 <= x3,13 <= 1
0 <= x4,7 <= 1
0 <= x4,8 <= 1
0 <= x4,9 <= 1
0 <= x4,10 <= 1
0 <= x4,11 <= 1
0 <= x4,12 <= 1
0 <= x5,6 <= 1
0 <= x5,7 <= 1
0 <= x5,8 <= 1
0 <= x5,9 <= 1
0 <= x5,10 <= 1
0 <= x5,11 <= 1
0 <= x6,4 <= 1
0 <= x6,5 <= 1
0 <= x6,6 <= 1
0 <= x6,7 <= 1
0 <= x6,8 <= 1
0 <= x6,9 <= 1
0 <= x7,6 <= 1
0 <= x7,7 <= 1
0 <= x7,8 <= 1
0 <= x7,9 <= 1
0 <= x7,10 <= 1
0 <= x7,11 <= 1
0 <= x7,12 <= 1
0 <= x7,13 <= 1
0 <= x7,14 <= 1
0 <= x8,7 <= 1
0 <= x8,8 <= 1
0 <= x8,9 <= 1
0 <= x8,10 <= 1
0 <= x8,11 <= 1
0 <= x8,12 <= 1
0 <= x8,13 <= 1
0 <= x8,14 <= 1
0 <= x9,7 <= 1
0 <= x9,8 <= 1
0 <= x9,9 <= 1
0 <= x9,10 <= 1
0 <= x9,11 <= 1
0 <= x9,12 <= 1
0 <= x9,13 <= 1
0 <= x9,14 <= 1
0 <= x9,15 <= 1
0 <= x10,6 <= 1
0 <= x10,7 <= 1
0 <= x10,8 <= 1
0 <= x10,9 <= 1
0 <= x10,10 <= 1
0 <= x10,11 <= 1
0 <= x10,12 <= 1
0 <= x10,13 <= 1
0 <= x11,5 <= 1
0 <= x11,6 <= 1
0 <= x11,7 <= 1
0 <= x11,8 <= 1
0 <= x11,9 <= 1
0 <= x11,10 <= 1
0 <= x11,11 <= 1
0 <= x11,12 <= 1
0 <= x12,4 <= 1
0 <= x12,5 <= 1
0 <= x12,6 <= 1
0 <= x12,7 <= 1
0 <= x12,8 <= 1
0 <= x12,9 <= 1
0 <= x12,10 <= 1
0 <= x12,11 <= 1
0 <= x13,2 <= 1
0 <= x13,3 <= 1
0 <= x13,4 <= 1
0 <= x13,5 <= 1
0 <= x13,6 <= 1
0 <= x13,7 <= 1
0 <= x14,3 <= 1
0 <= x14,4 <= 1
0 <= x14,5 <= 1
0 <= x14,6 <= 1
0 <= x14,7 <= 1
0 <= x14,8 <= 1
0 <= x14,9 <= 1
0 <= x14,10 <= 1
0 <= x14,11 <= 1
0 <= x14,12 <= 1
0 <= x14,13 <= 1
0 <= x14,14 <= 1
0 <= x15,2 <= 1
0 <= x15,3 <= 1
0 <= x15,4 <= 1
0 <= x15,5 <= 1
0 <= x15,6 <= 1
0 <= x15,7 <= 1
0 <= x15,8 <= 1
0 <= x15,9 <= 1
0 <= x15,10 <= 1
0 <= x15,11 <= 1
0 <= x15,12 <= 1
0 <= x15,13 <= 1
0 <= x16,1 <= 1
0 <= x16,2 <= 1
0 <= x16,3 <= 1
0 <= x16,4 <= 1
0 <= x16,5 <= 1
0 <= x16,6 <= 1
0 <= x17,6 <= 1
0 <= x17,7 <= 1
0 <= x17,8 <= 1
0 <= x17,9 <= 1
0 <= x17,10 <= 1
0 <= x17,11 <= 1
0 <= x17,12 <= 1
0 <= x17,13 <= 1
0 <= x17,14 <= 1
0 <= x18,7 <= 1
0 <= x18,8 <= 1
0 <= x18,9 <= 1
0 <= x18,10 <= 1
0 <= x18,11 <= 1
0 <= x18,12 <= 1
0 <= x18,13 <= 1
0 <= x18,14 <= 1
0 <= x19,7 <= 1
0 <= x19,8 <= 1
0 <= x19,9 <= 1
0 <= x19,10 <= 1
0 <= x19,11 <= 1
0 <= x19,12 <= 1
0 <= x19,13 <= 1
0 <= x19,14 <= 1
0 <= x19,15 <= 1
0 <= x20,6 <= 1
0 <= x20,7 <= 1
0 <= x20,8 <= 1
0 <= x20,9 <= 1
0 <= x20,10 <= 1
0 <= x20,11 <= 1
0 <= x20,12 <= 1
0 <= x20,13 <= 1
0 <= x21,5 <= 1
0 <= x21,6 <= 1
0 <= x21,7 <= 1
0 <= x21,8 <= 1
0 <= x21,9 <= 1
0 <= x21,10 <= 1
0 <= x21,11 <= 1
0 <= x21,12 <= 1
0 <= x22,4 <= 1
0 <= x22,5 <= 1
0 <= x22,6 <= 1
0 <= x22,7 <= 1
0 <= x22,8 <= 1
0 <= x22,9 <= 1
0 <= x22,10 <= 1
0 <= x22,11 <= 1
0 <= x23,2 <= 1
0 <= x23,3 <= 1
0 <= x23,4 <= 1
0 <= x23,5 <= 1
0 <= x23,6 <= 1
0 <= x23,7 <= 1
0 <= x24,3 <= 1
0 <= x24,4 <= 1
0 <= x24,5 <= 1
0 <= x24,6 <= 1
0 <= x24,7 <= 1
0 <= x24,8 <= 1
0 <= x24,9 <= 1
0 <= x24,10 <= 1
0 <= x24,11 <= 1
0 <= x24,12 <= 1
0 <= x24,13 <= 1
0 <= x24,14 <= 1
0 <= x25,2 <= 1
0 <= x25,3 <= 1
0 <= x25,4 <= 1
0 <= x25,5 <= 1
0 <= x25,6 <= 1
0 <= x25,7 <= 1
0 <= x25,8 <= 1
0 <= x25,9 <= 1
0 <= x25,10 <= 1
0 <= x25,11 <= 1
0 <= x25,12 <= 1
0 <= x25,13 <= 1
0 <= x26,1 <= 1
0 <= x26,2 <= 1
0 <= x26,3 <= 1
0 <= x26,4 <= 1
0 <= x26,5 <= 1
0 <= x26,6 <= 1
0 <= x27,6 <= 1
0 <= x27,7 <= 1
0 <= x27,8 <= 1
0 <= x27,9 <= 1
0 <= x27,10 <= 1
0 <= x27,11 <= 1
0 <= x27,12 <= 1
0 <= x27,13 <= 1
0 <= x27,14 <= 1
0 <= x28,7 <= 1
0 <= x28,8 <= 1
0 <= x28,9 <= 1
0 <= x28,10 <= 1
0 <= x28,11 <= 1
0 <= x28,12 <= 1
0 <= x28,13 <= 1
0 <= x28,14 <= 1
0 <= x29,7 <= 1
0 <= x29,8 <= 1
0 <= x29,9 <= 1
0 <= x29,10 <= 1
0 <= x29,11 <= 1
0 <= x29,12 <= 1
0 <= x29,13 <= 1
0 <= x29,14 <= 1
0 <= x29,15 <= 1
0 <= x30,6 <= 1
0 <= x30,7 <= 1
0 <= x30,8 <= 1
0 <= x30,9 <= 1
0 <= x30,10 <= 1
0 <= x30,11 <= 1
0 <= x30,12 <= 1
0 <= x30,13 <= 1
0 <= x31,5 <= 1
0 <= x31,6 <= 1
0 <= x31,7 <= 1
0 <= x31,8 <= 1
0 <= x31,9 <= 1
0 <= x31,10 <= 1
0 <= x31,11 <= 1
0 <= x31,12 <= 1
0 <= x32,4 <= 1
0 <= x32,5 <= 1
0 <= x32,6 <= 1
0 <= x32,7 <= 1
0 <= x32,8 <= 1
0 <= x32,9 <= 1
0 <= x32,10 <= 1
0 <= x32,11 <= 1
0 <= x33,2 <= 1
0 <= x33,3 <= 1
0 <= x33,4 <= 1
0 <= x33,5 <= 1
0 <= x33,6 <= 1
0 <= x33,7 <= 1
0 <= x34,3 <= 1
0 <= x34,4 <= 1
0 <= x34,5 <= 1
0 <= x34,6 <= 1
0 <= x34,7 <= 1
0 <= x34,8 <= 1
0 <= x34,9 <= 1
0 <= x34,10 <= 1
0 <= x34,11 <= 1
0 <= x34,12 <= 1
0 <= x34,13 <= 1
0 <= x34,14 <= 1
0 <= x35,2 <= 1
0 <= x35,3 <= 1
0 <= x35,4 <= 1
0 <= x35,5 <= 1
0 <= x35,6 <= 1
0 <= x35,7 <= 1
0 <= x35,8 <= 1
0 <= x35,9 <= 1
0 <= x35,10 <= 1
0 <= x35,11 <= 1
0 <= x35,12 <= 1
0 <= x35,13 <= 1
0 <= x36,1 <= 1
0 <= x36,2 <= 1
0 <= x36,3 <= 1
0 <= x36,4 <= 1
0 <= x36,5 <= 1
0 <= x36,6 <= 1
0 <= x37,4 <= 1
0 <= x37,5 <= 1
0 <= x37,6 <= 1
0 <= x37,7 <= 1
0 <= x37,8 <= 1
0 <= x37,9 <= 1
0 <= x37,10 <= 1
0 <= x37,11 <= 1
0 <= x37,12 <= 1
0 <= x37,13 <= 1
0 <= x37,14 <= 1
0 <= x38,5 <= 1
0 <= x38,6 <= 1
0 <= x38,7 <= 1
0 <= x38,8 <= 1
0 <= x38,9 <= 1
0 <= x38,10 <= 1
0 <= x38,11 <= 1
0 <= x38,12 <= 1
0 <= x38,13 <= 1
0 <= x38,14 <= 1
0 <= x39,5 <= 1
0 <= x39,6 <= 1
0 <= x39,7 <= 1
0 <= x39,8 <= 1
0 <= x39,9 <= 1
0 <= x39,10 <= 1
0 <= x39,11 <= 1
0 <= x39,12 <= 1
0 <= x39,13 <= 1
0 <= x39,14 <= 1
0 <= x39,15 <= 1
0 <= x40,4 <= 1
0 <= x40,5 <= 1
0 <= x40,6 <= 1
0 <= x40,7 <= 1
0 <= x40,8 <= 1
0 <= x40,9 <= 1
0 <= x40,10 <= 1
0 <= x40,11 <= 1
0 <= x40,12 <= 1
0 <= x40,13 <= 1
0 <= x41,3 <= 1
0 <= x41,4 <= 1
0 <= x41,5 <= 1
0 <= x41,6 <= 1
0 <= x41,7 <= 1
0 <= x41,8 <= 1
0 <= x41,9 <= 1
0 <= x41,10 <= 1
0 <= x41,11 <= 1
0 <= x41,12 <= 1
0 <= x42,2 <= 1
0 <= x42,3 <= 1
0 <= x42,4 <= 1
0 <= x42,5 <= 1
0 <= x42,6 <= 1
0 <= x42,7 <= 1
0 <= x42,8 <= 1
0 <= x42,9 <= 1
0 <= x42,10 <= 1
0 <= x42,11 <= 1
0 <= x43,3 <= 1
0 <= x43,4 <= 1
0 <= x43,5 <= 1
0 <= x43,6 <= 1
0 <= x43,7 <= 1
0 <= x43,8 <= 1
0 <= x43,9 <= 1
0 <= x43,10 <= 1
0 <= x43,11 <= 1
0 <= x43,12 <= 1
0 <= x43,13 <= 1
0 <= x43,14 <= 1
0 <= x44,2 <= 1
0 <= x44,3 <= 1
0 <= x44,4 <= 1
0 <= x44,5 <= 1
0 <= x44,6 <= 1
0 <= x44,7 <= 1
0 <= x44,8 <= 1
0 <= x44,9 <= 1
0 <= x44,10 <= 1
0 <= x44,11 <= 1
0 <= x44,12 <= 1
0 <= x44,13 <= 1
0 <= x45,1 <= 1
0 <= x45,2 <= 1
0 <= x45,3 <= 1
0 <= x45,4 <= 1
0 <= x45,5 <= 1
0 <= x45,6 <= 1
0 <= x45,7 <= 1
0 <= x45,8 <= 1
0 <= x45,9 <= 1
0 <= x45,10 <= 1
0 <= x46,4 <= 1
0 <= x46,5 <= 1
0 <= x46,6 <= 1
0 <= x46,7 <= 1
0 <= x46,8 <= 1
0 <= x46,9 <= 1
0 <= x46,10 <= 1
0 <= x46,11 <= 1
0 <= x46,12 <= 1
0 <= x46,13 <= 1
0 <= x46,14 <= 1
0 <= x46,15 <= 1
0 <= x47,3 <= 1
0 <= x47,4 <= 1
0 <= x47,5 <= 1
0 <= x47,6 <= 1
0 <= x47,7 <= 1
0 <= x47,8 <= 1
0 <= x47,9 <= 1
0 <= x47,10 <= 1
0 <= x47,11 <= 1
0 <= x47,12 <= 1
0 <= x47,13 <= 1
0 <= x47,14 <= 1
0 <= x48,2 <= 1
0 <= x48,3 <= 1
0 <= x48,4 <= 1
0 <= x48,5 <= 1
0 <= x48,6 <= 1
0 <= x48,7 <= 1
0 <= x48,8 <= 1
0 <= x48,9 <= 1
0 <= x48,10 <= 1
0 <= x48,11 <= 1
0 <= x48,12 <= 1
0 <= x48,13 <= 1
0 <= x49,4 <= 1
0 <= x49,5 <= 1
0 <= x49,6 <= 1
0 <= x49,7 <= 1
0 <= x49,8 <= 1
0 <= x49,9 <= 1
0 <= x49,10 <= 1
0 <= x49,11 <= 1
0 <= x49,12 <= 1
0 <= x49,13 <= 1
0 <= x49,14 <= 1
0 <= x49,15 <= 1
0 <= x50,3 <= 1
0 <= x50,4 <= 1
0 <= x50,5 <= 1
0 <= x50,6 <= 1
0 <= x50,7 <= 1
0 <= x50,8 <= 1
0 <= x50,9 <= 1
0 <= x50,10 <= 1
0 <= x50,11 <= 1
0 <= x50,12 <= 1
0 <= x50,13 <= 1
0 <= x50,14 <= 1
0 <= x51,2 <= 1
0 <= x51,3 <= 1
0 <= x51,4 <= 1
0 <= x51,5 <= 1
0 <= x51,6 <= 1
0 <= x51,7 <= 1
0 <= x51,8 <= 1
0 <= x51,9 <= 1
0 <= x51,10 <= 1
0 <= x51,11 <= 1
0 <= x51,12 <= 1
0 <= x51,13 <= 1
0 <= x52,1 <= 1
0 <= x52,2 <= 1
0 <= x52,3 <= 1
0 <= x52,4 <= 1
0 <= x52,5 <= 1
0 <= x52,6 <= 1
0 <= x52,7 <= 1
0 <= x52,8 <= 1
0 <= x52,9 <= 1
0 <= x52,10 <= 1
0 <= x52,11 <= 1
0 <= x52,12 <= 1
M1 >= 1
M2 >= 1
Generals
x0,8
x0,9
x0,10
x0,11
x0,12
x0,13
x0,14
x1,9
x1,10
x1,11
x1,12
x1,13
x1,14
x2,9
x2,10
x2,11
x2,12
x2,13
x2,14
x2,15
x3,8
x3,9
x3,10
x3,11
x3,12
x3,13
x4,7
x4,8
x4,9
x4,10
x4,11
x4,12
x5,6
x5,7
x5,8
x5,9
x5,10
x5,11
x6,4
x6,5
x6,6
x6,7
x6,8
x6,9
x7,6
x7,7
x7,8
x7,9
x7,10
x7,11
x7,12
x7,13
x7,14
x8,7
x8,8
x8,9
x8,10
x8,11
x8,12
x8,13
x8,14
x9,7
x9,8
x9,9
x9,10
x9,11
x9,12
x9,13
x9,14
x9,15
x10,6
x10,7
x10,8
x10,9
x10,10
x10,11
x10,12
x10,13
x11,5
x11,6
x11,7
x11,8
x11,9
x11,10
x11,11
x11,12
x12,4
x12,5
x12,6
x12,7
x12,8
x12,9
x12,10
x12,11
x13,2
x13,3
x13,4
x13,5
x13,6
x13,7
x14,3
x14,4
x14,5
x14,6
x14,7
x14,8
x14,9
x14,10
x14,11
x14,12
x14,13
x14,14
x15,2
x15,3
x15,4
x15,5
x15,6
x15,7
x15,8
x15,9
x15,10
x15,11
x15,12
x15,13
x16,1
x16,2
x16,3
x16,4
x16,5
x16,6
x17,6
x17,7
x17,8
x17,9
x17,10
x17,11
x17,12
x17,13
x17,14
x18,7
x18,8
x18,9
x18,10
x18,11
x18,12
x18,13
x18,14
x19,7
x19,8
x19,9
x19,10
x19,11
x19,12
x19,13
x19,14
x19,15
x20,6
x20,7
x20,8
x20,9
x20,10
x20,11
x20,12
x20,13
x21,5
x21,6
x21,7
x21,8
x21,9
x21,10
x21,11
x21,12
x22,4
x22,5
x22,6
x22,7
x22,8
x22,9
x22,10
x22,11
x23,2
x23,3
x23,4
x23,5
x23,6
x23,7
x24,3
x24,4
x24,5
x24,6
x24,7
x24,8
x24,9
x24,10
x24,11
x24,12
x24,13
x24,14
x25,2
x25,3
x25,4
x25,5
x25,6
x25,7
x25,8
x25,9
x25,10
x25,11
x25,12
x25,13
x26,1
x26,2
x26,3
x26,4
x26,5
x26,6
x27,6
x27,7
x27,8
x27,9
x27,10
x27,11
x27,12
x27,13
x27,14
x28,7
x28,8
x28,9
x28,10
x28,11
x28,12
x28,13
x28,14
x29,7
x29,8
x29,9
x29,10
x29,11
x29,12
x29,13
x29,14
x29,15
x30,6
x30,7
x30,8
x30,9
x30,10
x30,11
x30,12
x30,13
x31,5
x31,6
x31,7
x31,8
x31,9
x31,10
x31,11
x31,12
x32,4
x32,5
x32,6
x32,7
x32,8
x32,9
x32,10
x32,11
x33,2
x33,3
x33,4
x33,5
x33,6
x33,7
x34,3
x34,4
x34,5
x34,6
x34,7
x34,8
x34,9
x34,10
x34,11
x34,12
x34,13
x34,14
x35,2
x35,3
x35,4
x35,5
x35,6
x35,7
x35,8
x35,9
x35,10
x35,11
x35,12
x35,13
x36,1
x36,2
x36,3
x36,4
x36,5
x36,6
x37,4
x37,5
x37,6
x37,7
x37,8
x37,9
x37,10
x37,11
x37,12
x37,13
x37,14
x38,5
x38,6
x38,7
x38,8
x38,9
x38,10
x38,11
x38,12
x38,13
x38,14
x39,5
x39,6
x39,7
x39,8
x39,9
x39,10
x39,11
x39,12
x39,13
x39,14
x39,15
x40,4
x40,5
x40,6
x40,7
x40,8
x40,9
x40,10
x40,11
x40,12
x40,13
x41,3
x41,4
x41,5
x41,6
x41,7
x41,8
x41,9
x41,10
x41,11
x41,12
x42,2
x42,3
x42,4
x42,5
x42,6
x42,7
x42,8
x42,9
x42,10
x42,11
x43,3
x43,4
x43,5
x43,6
x43,7
x43,8
x43,9
x43,10
x43,11
x43,12
x43,13
x43,14
x44,2
x44,3
x44,4
x44,5
x44,6
x44,7
x44,8
x44,9
x44,10
x44,11
x44,12
x44,13
x45,1
x45,2
x45,3
x45,4
x45,5
x45,6
x45,7
x45,8
x45,9
x45,10
x46,4
x46,5
x46,6
x46,7
x46,8
x46,9
x46,10
x46,11
x46,12
x46,13
x46,14
x46,15
x47,3
x47,4
x47,5
x47,6
x47,7
x47,8
x47,9
x47,10
x47,11
x47,12
x47,13
x47,14
x48,2
x48,3
x48,4
x48,5
x48,6
x48,7
x48,8
x48,9
x48,10
x48,11
x48,12
x48,13
x49,4
x49,5
x49,6
x49,7
x49,8
x49,9
x49,10
x49,11
x49,12
x49,13
x49,14
x49,15
x50,3
x50,4
x50,5
x50,6
x50,7
x50,8
x50,9
x50,10
x50,11
x50,12
x50,13
x50,14
x51,2
x51,3
x51,4
x51,5
x51,6
x51,7
x51,8
x51,9
x51,10
x51,11
x51,12
x51,13
x52,1
x52,2
x52,3
x52,4
x52,5
x52,6
x52,7
x52,8
x52,9
x52,10
x52,11
x52,12
M1
M2
End
